<number of tasks>
100

<cycle time>
1000

<order strength>
0.196


<task times>
1 195
2 134
3 166
4 114
5 59
6 252
7 232
8 145
9 356
10 79
11 311
12 35
13 164
14 301
15 256
16 295
17 104
18 73
19 201
20 62
21 34
22 70
23 35
24 118
25 47
26 213
27 23
28 63
29 102
30 144
31 156
32 140
33 66
34 237
35 128
36 228
37 231
38 103
39 283
40 151
41 145
42 187
43 88
44 73
45 159
46 46
47 178
48 163
49 189
50 107
51 249
52 298
53 59
54 201
55 87
56 129
57 116
58 231
59 52
60 59
61 217
62 225
63 68
64 217
65 150
66 45
67 137
68 166
69 180
70 147
71 238
72 192
73 205
74 282
75 34
76 248
77 148
78 35
79 98
80 37
81 48
82 158
83 35
84 158
85 22
86 185
87 24
88 93
89 277
90 250
91 31
92 52
93 78
94 44
95 193
96 257
97 126
98 94
99 65
100 122

<precedence relations>
1,39
2,39
3,39
4,74
5,74
6,12
7,11
7,13
7,15
8,9
8,10
8,14
8,16
9,39
10,39
11,74
12,21
13,19
13,20
14,18
15,24
16,17
16,22
16,23
17,39
18,74
19,29
20,32
21,31
22,27
22,28
22,30
22,35
23,26
23,33
23,34
23,36
23,37
23,38
24,25
25,39
26,39
27,39
28,39
29,45
30,43
31,44
32,46
33,42
33,50
34,40
34,41
35,48
36,49
38,47
39,51
39,52
39,53
39,54
39,55
39,60
40,74
41,74
42,56
43,57
44,58
46,61
49,59
51,65
52,63
55,64
56,62
57,66
59,67
62,74
63,69
64,71
64,73
66,68
67,70
67,72
68,74
69,75
70,77
71,76
72,78
74,79
74,80
74,81
74,82
74,83
74,84
74,85
74,86
75,87
76,88
77,89
80,93
83,94
87,90
88,91
89,92
90,96
91,97
92,95
93,98
93,99
94,100

<end>
